
Gurobi 7.5.2 (linux64, Python) logging started Mon 23 Apr 2018 12:42:18 AM EDT

Academic license - for non-commercial use only
Read MPS format model from file sslp_15_45_5.mps
Reading time = 0.00 seconds
SSLP_15_45_5: 61 rows, 705 columns, 1379 nonzeros
